Similarity/results-solution/S1-5-SIMILARITY/S1-5-5-2-l-SIMILARITY.sol
<?xml version = "1.0" encoding="UTF-8" standalone="yes"?>
<CPLEXSolution version="1.2">
 <header
   problemName="C:/Users/Vanessa A. Schneider/Documents/MESTRADO/Testes Dissertacao/Similaridade/instancias-gerar-solucao\S1-5\S1-5-5-2-l-SIMILARIDADE.lp"
   solutionName="incumbent"
   solutionIndex="-1"
   objectiveValue="838"
   solutionTypeValue="3"
   solutionTypeString="primal"
   solutionStatusValue="101"
   solutionStatusString="integer optimal solution"
   solutionMethodString="mip"
   primalFeasible="1"
   dualFeasible="1"
   MIPNodes="0"
   MIPIterations="1150"
   writeLevel="1"/>
 <quality
   epInt="1.0000000000000001e-05"
   epRHS="9.9999999999999995e-07"
   maxIntInfeas="0"
   maxPrimalInfeas="0"
   maxX="1"
   maxSlack="770.45000000000209"/>
 <linearConstraints>
  <constraint name="TX_MIN_RETORNO@0" index="0" slack="-770.45000000000209"/>
  <constraint name="ORCAMENTO6_1" index="1" slack="25"/>
  <constraint name="ORCAMENTO6_2" index="2" slack="194"/>
  <constraint name="ORCAMENTO6_3" index="3" slack="160"/>
  <constraint name="ORCAMENTO6_4" index="4" slack="15"/>
  <constraint name="ORCAMENTO6_5" index="5" slack="11"/>
  <constraint name="OFERTA_MAX7_1" index="6" slack="1"/>
  <constraint name="OFERTA_MAX7_2" index="7" slack="0"/>
  <constraint name="OFERTA_MAX7_3" index="8" slack="0"/>
  <constraint name="OFERTA_MAX7_4" index="9" slack="0"/>
  <constraint name="OFERTA_MAX7_5" index="10" slack="0"/>
  <constraint name="OFERTA_MAX7_6" index="11" slack="0"/>
  <constraint name="OFERTA_MAX7_7" index="12" slack="0"/>
  <constraint name="OFERTA_MAX7_8" index="13" slack="0"/>
  <constraint name="OFERTA_MAX7_9" index="14" slack="0"/>
  <constraint name="OFERTA_MAX7_10" index="15" slack="0"/>
  <constraint name="OFERTA_MAX7_11" index="16" slack="0"/>
  <constraint name="OFERTA_MAX7_12" index="17" slack="0"/>
  <constraint name="OFERTA_MAX7_13" index="18" slack="0"/>
  <constraint name="OFERTA_MAX7_14" index="19" slack="0"/>
  <constraint name="OFERTA_MAX7_15" index="20" slack="0"/>
  <constraint name="OFERTA_MAX7_16" index="21" slack="1"/>
  <constraint name="OFERTA_MAX7_17" index="22" slack="0"/>
  <constraint name="OFERTA_MAX7_18" index="23" slack="0"/>
  <constraint name="OFERTA_MAX7_19" index="24" slack="0"/>
  <constraint name="OFERTA_MAX7_20" index="25" slack="0"/>
  <constraint name="OFERTA_MAX7_21" index="26" slack="0"/>
  <constraint name="OFERTA_MAX7_22" index="27" slack="0"/>
  <constraint name="OFERTA_MAX7_23" index="28" slack="0"/>
  <constraint name="OFERTA_MAX7_24" index="29" slack="0"/>
  <constraint name="OFERTA_MAX7_25" index="30" slack="0"/>
  <constraint name="OFERTA_MAX7_26" index="31" slack="0"/>
  <constraint name="OFERTA_MAX7_27" index="32" slack="0"/>
  <constraint name="OFERTA_MAX7_28" index="33" slack="0"/>
  <constraint name="OFERTA_MAX7_29" index="34" slack="0"/>
  <constraint name="OFERTA_MAX7_30" index="35" slack="1"/>
  <constraint name="OFERTA_MAX7_31" index="36" slack="1"/>
  <constraint name="OFERTA_MAX7_32" index="37" slack="0"/>
  <constraint name="OFERTA_MAX7_33" index="38" slack="0"/>
  <constraint name="OFERTA_MAX7_34" index="39" slack="0"/>
  <constraint name="OFERTA_MAX7_35" index="40" slack="0"/>
  <constraint name="OFERTA_MAX7_36" index="41" slack="0"/>
  <constraint name="OFERTA_MAX7_37" index="42" slack="0"/>
  <constraint name="OFERTA_MAX7_38" index="43" slack="0"/>
  <constraint name="OFERTA_MAX7_39" index="44" slack="0"/>
  <constraint name="OFERTA_MAX7_40" index="45" slack="0"/>
  <constraint name="OFERTA_MAX7_41" index="46" slack="0"/>
  <constraint name="OFERTA_MAX7_42" index="47" slack="0"/>
  <constraint name="OFERTA_MAX7_43" index="48" slack="1"/>
  <constraint name="OFERTA_MAX7_44" index="49" slack="0"/>
  <constraint name="OFERTA_MAX7_45" index="50" slack="0"/>
  <constraint name="OFERTA_MAX7_46" index="51" slack="0"/>
  <constraint name="OFERTA_MAX7_47" index="52" slack="1"/>
  <constraint name="OFERTA_MAX7_48" index="53" slack="0"/>
  <constraint name="OFERTA_MAX7_49" index="54" slack="0"/>
  <constraint name="OFERTA_MAX7_50" index="55" slack="0"/>
  <constraint name="OFERTA_MAX7_51" index="56" slack="0"/>
  <constraint name="OFERTA_MAX7_52" index="57" slack="0"/>
  <constraint name="OFERTA_MAX7_53" index="58" slack="0"/>
  <constraint name="OFERTA_MAX7_54" index="59" slack="0"/>
  <constraint name="OFERTA_MAX7_55" index="60" slack="1"/>
  <constraint name="OFERTA_MAX7_56" index="61" slack="2"/>
  <constraint name="OFERTA_MAX7_57" index="62" slack="0"/>
  <constraint name="OFERTA_MAX7_58" index="63" slack="0"/>
  <constraint name="OFERTA_MAX7_59" index="64" slack="0"/>
  <constraint name="OFERTA_MAX7_60" index="65" slack="0"/>
  <constraint name="OFERTA_MAX7_61" index="66" slack="1"/>
  <constraint name="OFERTA_MAX7_62" index="67" slack="0"/>
  <constraint name="OFERTA_MAX7_63" index="68" slack="0"/>
  <constraint name="OFERTA_MAX7_64" index="69" slack="0"/>
  <constraint name="OFERTA_MAX7_65" index="70" slack="0"/>
  <constraint name="OFERTA_MAX7_66" index="71" slack="1"/>
  <constraint name="OFERTA_MAX7_67" index="72" slack="0"/>
  <constraint name="OFERTA_MAX7_68" index="73" slack="0"/>
  <constraint name="OFERTA_MAX7_69" index="74" slack="0"/>
  <constraint name="OFERTA_MAX7_70" index="75" slack="0"/>
  <constraint name="OFERTA_MAX7_71" index="76" slack="0"/>
  <constraint name="OFERTA_MAX7_72" index="77" slack="0"/>
  <constraint name="OFERTA_MAX7_73" index="78" slack="0"/>
  <constraint name="OFERTA_MAX7_74" index="79" slack="2"/>
  <constraint name="OFERTA_MAX7_75" index="80" slack="0"/>
  <constraint name="OFERTA_MAX7_76" index="81" slack="1"/>
  <constraint name="OFERTA_MAX7_77" index="82" slack="0"/>
  <constraint name="OFERTA_MAX7_78" index="83" slack="1"/>
  <constraint name="OFERTA_MAX7_79" index="84" slack="2"/>
  <constraint name="OFERTA_MAX7_80" index="85" slack="0"/>
  <constraint name="OFERTA_MAX7_81" index="86" slack="0"/>
  <constraint name="OFERTA_MAX7_82" index="87" slack="0"/>
  <constraint name="OFERTA_MAX7_83" index="88" slack="1"/>
  <constraint name="OFERTA_MAX7_84" index="89" slack="0"/>
  <constraint name="OFERTA_MAX7_85" index="90" slack="0"/>
  <constraint name="OFERTA_MAX7_86" index="91" slack="0"/>
  <constraint name="OFERTA_MAX7_87" index="92" slack="0"/>
  <constraint name="OFERTA_MAX7_88" index="93" slack="0"/>
  <constraint name="OFERTA_MAX7_89" index="94" slack="1"/>
  <constraint name="OFERTA_MAX7_90" index="95" slack="0"/>
  <constraint name="OFERTA_MAX7_91" index="96" slack="0"/>
  <constraint name="OFERTA_MAX7_92" index="97" slack="0"/>
  <constraint name="OFERTA_MAX7_93" index="98" slack="0"/>
  <constraint name="OFERTA_MAX7_94" index="99" slack="0"/>
  <constraint name="OFERTA_MAX7_95" index="100" slack="0"/>
  <constraint name="OFERTA_MAX7_96" index="101" slack="1"/>
  <constraint name="OFERTA_MAX7_97" index="102" slack="0"/>
  <constraint name="OFERTA_MAX7_98" index="103" slack="1"/>
  <constraint name="OFERTA_MAX7_99" index="104" slack="1"/>
  <constraint name="OFERTA_MAX7_100" index="105" slack="0"/>
  <constraint name="OFERTA_MIN8_1" index="106" slack="27"/>
  <constraint name="OFERTA_MIN8_2" index="107" slack="0"/>
  <constraint name="OFERTA_MIN8_3" index="108" slack="0"/>
  <constraint name="OFERTA_MIN8_4" index="109" slack="12"/>
  <constraint name="OFERTA_MIN8_5" index="110" slack="26"/>
  <constraint name="OFERTA_MIN9_1" index="111" slack="0"/>
  <constraint name="OFERTA_MIN9_2" index="112" slack="0"/>
  <constraint name="OFERTA_MIN9_3" index="113" slack="0"/>
  <constraint name="OFERTA_MIN9_4" index="114" slack="0"/>
  <constraint name="OFERTA_MIN9_5" index="115" slack="-12"/>
  <constraint name="CANIB10_1" index="116" slack="0"/>
 </linearConstraints>
 <variables>
  <variable name="x#1#1" index="0" value="1"/>
  <variable name="x#1#2" index="1" value="0"/>
  <variable name="x#1#3" index="2" value="0"/>
  <variable name="x#1#4" index="3" value="0"/>
  <variable name="x#1#5" index="4" value="1"/>
  <variable name="x#2#1" index="5" value="1"/>
  <variable name="x#2#2" index="6" value="0"/>
  <variable name="x#2#3" index="7" value="0"/>
  <variable name="x#2#4" index="8" value="1"/>
  <variable name="x#2#5" index="9" value="0"/>
  <variable name="x#3#1" index="10" value="1"/>
  <variable name="x#3#2" index="11" value="0"/>
  <variable name="x#3#3" index="12" value="0"/>
  <variable name="x#3#4" index="13" value="1"/>
  <variable name="x#3#5" index="14" value="1"/>
  <variable name="x#4#1" index="15" value="1"/>
  <variable name="x#4#2" index="16" value="0"/>
  <variable name="x#4#3" index="17" value="0"/>
  <variable name="x#4#4" index="18" value="1"/>
  <variable name="x#4#5" index="19" value="1"/>
  <variable name="x#5#1" index="20" value="1"/>
  <variable name="x#5#2" index="21" value="0"/>
  <variable name="x#5#3" index="22" value="0"/>
  <variable name="x#5#4" index="23" value="1"/>
  <variable name="x#5#5" index="24" value="1"/>
  <variable name="x#6#1" index="25" value="0"/>
  <variable name="x#6#2" index="26" value="0"/>
  <variable name="x#6#3" index="27" value="0"/>
  <variable name="x#6#4" index="28" value="1"/>
  <variable name="x#6#5" index="29" value="1"/>
  <variable name="x#7#1" index="30" value="1"/>
  <variable name="x#7#2" index="31" value="0"/>
  <variable name="x#7#3" index="32" value="0"/>
  <variable name="x#7#4" index="33" value="1"/>
  <variable name="x#7#5" index="34" value="1"/>
  <variable name="x#8#1" index="35" value="1"/>
  <variable name="x#8#3" index="36" value="0"/>
  <variable name="x#8#4" index="37" value="0"/>
  <variable name="x#8#5" index="38" value="1"/>
  <variable name="x#9#1" index="39" value="0"/>
  <variable name="x#9#2" index="40" value="0"/>
  <variable name="x#9#3" index="41" value="0"/>
  <variable name="x#9#4" index="42" value="1"/>
  <variable name="x#9#5" index="43" value="1"/>
  <variable name="x#10#1" index="44" value="1"/>
  <variable name="x#10#3" index="45" value="0"/>
  <variable name="x#10#4" index="46" value="1"/>
  <variable name="x#10#5" index="47" value="1"/>
  <variable name="x#11#1" index="48" value="1"/>
  <variable name="x#11#2" index="49" value="0"/>
  <variable name="x#11#3" index="50" value="0"/>
  <variable name="x#11#4" index="51" value="1"/>
  <variable name="x#12#1" index="52" value="1"/>
  <variable name="x#12#2" index="53" value="0"/>
  <variable name="x#12#3" index="54" value="0"/>
  <variable name="x#12#4" index="55" value="0"/>
  <variable name="x#12#5" index="56" value="1"/>
  <variable name="x#13#1" index="57" value="1"/>
  <variable name="x#13#3" index="58" value="0"/>
  <variable name="x#13#4" index="59" value="1"/>
  <variable name="x#13#5" index="60" value="1"/>
  <variable name="x#14#1" index="61" value="0"/>
  <variable name="x#14#2" index="62" value="0"/>
  <variable name="x#14#3" index="63" value="0"/>
  <variable name="x#14#4" index="64" value="1"/>
  <variable name="x#14#5" index="65" value="1"/>
  <variable name="x#15#1" index="66" value="1"/>
  <variable name="x#15#2" index="67" value="0"/>
  <variable name="x#15#3" index="68" value="0"/>
  <variable name="x#15#4" index="69" value="1"/>
  <variable name="x#15#5" index="70" value="0"/>
  <variable name="x#16#1" index="71" value="0"/>
  <variable name="x#16#2" index="72" value="0"/>
  <variable name="x#16#3" index="73" value="0"/>
  <variable name="x#16#4" index="74" value="1"/>
  <variable name="x#16#5" index="75" value="1"/>
  <variable name="x#17#1" index="76" value="1"/>
  <variable name="x#17#2" index="77" value="0"/>
  <variable name="x#17#3" index="78" value="0"/>
  <variable name="x#17#4" index="79" value="1"/>
  <variable name="x#17#5" index="80" value="1"/>
  <variable name="x#18#1" index="81" value="1"/>
  <variable name="x#18#2" index="82" value="0"/>
  <variable name="x#18#3" index="83" value="0"/>
  <variable name="x#18#4" index="84" value="1"/>
  <variable name="x#18#5" index="85" value="1"/>
  <variable name="x#19#1" index="86" value="0"/>
  <variable name="x#19#2" index="87" value="0"/>
  <variable name="x#19#3" index="88" value="0"/>
  <variable name="x#19#4" index="89" value="1"/>
  <variable name="x#19#5" index="90" value="1"/>
  <variable name="x#20#1" index="91" value="1"/>
  <variable name="x#20#2" index="92" value="0"/>
  <variable name="x#20#3" index="93" value="0"/>
  <variable name="x#20#4" index="94" value="1"/>
  <variable name="x#21#1" index="95" value="1"/>
  <variable name="x#21#2" index="96" value="0"/>
  <variable name="x#21#3" index="97" value="0"/>
  <variable name="x#21#4" index="98" value="1"/>
  <variable name="x#21#5" index="99" value="1"/>
  <variable name="x#22#1" index="100" value="0"/>
  <variable name="x#22#2" index="101" value="0"/>
  <variable name="x#22#3" index="102" value="0"/>
  <variable name="x#22#4" index="103" value="1"/>
  <variable name="x#22#5" index="104" value="1"/>
  <variable name="x#23#2" index="105" value="0"/>
  <variable name="x#23#3" index="106" value="0"/>
  <variable name="x#23#4" index="107" value="1"/>
  <variable name="x#23#5" index="108" value="1"/>
  <variable name="x#24#2" index="109" value="0"/>
  <variable name="x#24#3" index="110" value="0"/>
  <variable name="x#24#4" index="111" value="1"/>
  <variable name="x#24#5" index="112" value="1"/>
  <variable name="x#25#1" index="113" value="1"/>
  <variable name="x#25#2" index="114" value="0"/>
  <variable name="x#25#3" index="115" value="0"/>
  <variable name="x#25#4" index="116" value="1"/>
  <variable name="x#25#5" index="117" value="1"/>
  <variable name="x#26#1" index="118" value="1"/>
  <variable name="x#26#2" index="119" value="0"/>
  <variable name="x#26#3" index="120" value="0"/>
  <variable name="x#26#4" index="121" value="1"/>
  <variable name="x#26#5" index="122" value="0"/>
  <variable name="x#27#1" index="123" value="0"/>
  <variable name="x#27#2" index="124" value="0"/>
  <variable name="x#27#3" index="125" value="0"/>
  <variable name="x#27#4" index="126" value="1"/>
  <variable name="x#27#5" index="127" value="1"/>
  <variable name="x#28#1" index="128" value="1"/>
  <variable name="x#28#2" index="129" value="0"/>
  <variable name="x#28#3" index="130" value="0"/>
  <variable name="x#28#4" index="131" value="1"/>
  <variable name="x#28#5" index="132" value="1"/>
  <variable name="x#29#1" index="133" value="1"/>
  <variable name="x#29#2" index="134" value="0"/>
  <variable name="x#29#3" index="135" value="0"/>
  <variable name="x#29#4" index="136" value="1"/>
  <variable name="x#29#5" index="137" value="1"/>
  <variable name="x#30#1" index="138" value="0"/>
  <variable name="x#30#2" index="139" value="0"/>
  <variable name="x#30#3" index="140" value="0"/>
  <variable name="x#30#4" index="141" value="0"/>
  <variable name="x#30#5" index="142" value="1"/>
  <variable name="x#31#1" index="143" value="0"/>
  <variable name="x#31#2" index="144" value="0"/>
  <variable name="x#31#3" index="145" value="0"/>
  <variable name="x#31#4" index="146" value="1"/>
  <variable name="x#31#5" index="147" value="1"/>
  <variable name="x#32#1" index="148" value="1"/>
  <variable name="x#32#2" index="149" value="0"/>
  <variable name="x#32#3" index="150" value="0"/>
  <variable name="x#32#4" index="151" value="1"/>
  <variable name="x#32#5" index="152" value="0"/>
  <variable name="x#33#1" index="153" value="1"/>
  <variable name="x#33#2" index="154" value="0"/>
  <variable name="x#33#3" index="155" value="0"/>
  <variable name="x#33#4" index="156" value="1"/>
  <variable name="x#33#5" index="157" value="1"/>
  <variable name="x#34#1" index="158" value="0"/>
  <variable name="x#34#3" index="159" value="0"/>
  <variable name="x#34#4" index="160" value="1"/>
  <variable name="x#34#5" index="161" value="1"/>
  <variable name="x#35#1" index="162" value="1"/>
  <variable name="x#35#3" index="163" value="0"/>
  <variable name="x#35#4" index="164" value="1"/>
  <variable name="x#36#1" index="165" value="1"/>
  <variable name="x#36#2" index="166" value="0"/>
  <variable name="x#36#3" index="167" value="0"/>
  <variable name="x#36#4" index="168" value="1"/>
  <variable name="x#36#5" index="169" value="1"/>
  <variable name="x#37#1" index="170" value="1"/>
  <variable name="x#37#2" index="171" value="0"/>
  <variable name="x#37#3" index="172" value="0"/>
  <variable name="x#37#4" index="173" value="1"/>
  <variable name="x#37#5" index="174" value="1"/>
  <variable name="x#38#1" index="175" value="0"/>
  <variable name="x#38#2" index="176" value="0"/>
  <variable name="x#38#3" index="177" value="0"/>
  <variable name="x#38#4" index="178" value="1"/>
  <variable name="x#38#5" index="179" value="1"/>
  <variable name="x#39#1" index="180" value="1"/>
  <variable name="x#39#2" index="181" value="0"/>
  <variable name="x#39#3" index="182" value="0"/>
  <variable name="x#39#4" index="183" value="1"/>
  <variable name="x#39#5" index="184" value="0"/>
  <variable name="x#40#1" index="185" value="1"/>
  <variable name="x#40#2" index="186" value="0"/>
  <variable name="x#40#3" index="187" value="0"/>
  <variable name="x#40#4" index="188" value="1"/>
  <variable name="x#40#5" index="189" value="1"/>
  <variable name="x#41#1" index="190" value="0"/>
  <variable name="x#41#2" index="191" value="0"/>
  <variable name="x#41#3" index="192" value="0"/>
  <variable name="x#41#4" index="193" value="1"/>
  <variable name="x#41#5" index="194" value="1"/>
  <variable name="x#42#1" index="195" value="1"/>
  <variable name="x#42#2" index="196" value="0"/>
  <variable name="x#42#3" index="197" value="0"/>
  <variable name="x#42#4" index="198" value="1"/>
  <variable name="x#42#5" index="199" value="1"/>
  <variable name="x#43#1" index="200" value="1"/>
  <variable name="x#43#2" index="201" value="0"/>
  <variable name="x#43#3" index="202" value="0"/>
  <variable name="x#43#4" index="203" value="1"/>
  <variable name="x#43#5" index="204" value="0"/>
  <variable name="x#44#1" index="205" value="1"/>
  <variable name="x#44#2" index="206" value="0"/>
  <variable name="x#44#3" index="207" value="0"/>
  <variable name="x#44#5" index="208" value="1"/>
  <variable name="x#45#1" index="209" value="0"/>
  <variable name="x#45#2" index="210" value="0"/>
  <variable name="x#45#3" index="211" value="0"/>
  <variable name="x#45#4" index="212" value="1"/>
  <variable name="x#45#5" index="213" value="1"/>
  <variable name="x#46#1" index="214" value="0"/>
  <variable name="x#46#2" index="215" value="0"/>
  <variable name="x#46#3" index="216" value="0"/>
  <variable name="x#46#4" index="217" value="1"/>
  <variable name="x#46#5" index="218" value="1"/>
  <variable name="x#47#1" index="219" value="1"/>
  <variable name="x#47#2" index="220" value="0"/>
  <variable name="x#47#3" index="221" value="0"/>
  <variable name="x#47#4" index="222" value="1"/>
  <variable name="x#48#1" index="223" value="1"/>
  <variable name="x#48#2" index="224" value="0"/>
  <variable name="x#48#3" index="225" value="0"/>
  <variable name="x#48#4" index="226" value="1"/>
  <variable name="x#48#5" index="227" value="0"/>
  <variable name="x#49#1" index="228" value="1"/>
  <variable name="x#49#2" index="229" value="0"/>
  <variable name="x#49#3" index="230" value="0"/>
  <variable name="x#49#4" index="231" value="1"/>
  <variable name="x#49#5" index="232" value="1"/>
  <variable name="x#50#1" index="233" value="1"/>
  <variable name="x#50#2" index="234" value="0"/>
  <variable name="x#50#3" index="235" value="0"/>
  <variable name="x#50#4" index="236" value="1"/>
  <variable name="x#50#5" index="237" value="1"/>
  <variable name="x#51#1" index="238" value="1"/>
  <variable name="x#51#2" index="239" value="0"/>
  <variable name="x#51#3" index="240" value="0"/>
  <variable name="x#51#4" index="241" value="1"/>
  <variable name="x#51#5" index="242" value="1"/>
  <variable name="x#52#1" index="243" value="1"/>
  <variable name="x#52#3" index="244" value="0"/>
  <variable name="x#52#4" index="245" value="1"/>
  <variable name="x#52#5" index="246" value="1"/>
  <variable name="x#53#1" index="247" value="0"/>
  <variable name="x#53#2" index="248" value="0"/>
  <variable name="x#53#3" index="249" value="0"/>
  <variable name="x#53#4" index="250" value="1"/>
  <variable name="x#53#5" index="251" value="1"/>
  <variable name="x#54#1" index="252" value="1"/>
  <variable name="x#54#2" index="253" value="0"/>
  <variable name="x#54#3" index="254" value="0"/>
  <variable name="x#54#4" index="255" value="1"/>
  <variable name="x#54#5" index="256" value="1"/>
  <variable name="x#55#1" index="257" value="1"/>
  <variable name="x#55#2" index="258" value="0"/>
  <variable name="x#55#3" index="259" value="0"/>
  <variable name="x#55#4" index="260" value="0"/>
  <variable name="x#55#5" index="261" value="1"/>
  <variable name="x#56#1" index="262" value="0"/>
  <variable name="x#56#2" index="263" value="0"/>
  <variable name="x#56#3" index="264" value="0"/>
  <variable name="x#56#4" index="265" value="0"/>
  <variable name="x#56#5" index="266" value="1"/>
  <variable name="x#57#1" index="267" value="1"/>
  <variable name="x#57#2" index="268" value="0"/>
  <variable name="x#57#3" index="269" value="0"/>
  <variable name="x#57#4" index="270" value="1"/>
  <variable name="x#57#5" index="271" value="1"/>
  <variable name="x#58#1" index="272" value="1"/>
  <variable name="x#58#2" index="273" value="0"/>
  <variable name="x#58#3" index="274" value="0"/>
  <variable name="x#58#4" index="275" value="1"/>
  <variable name="x#58#5" index="276" value="1"/>
  <variable name="x#59#1" index="277" value="1"/>
  <variable name="x#59#3" index="278" value="0"/>
  <variable name="x#59#4" index="279" value="0"/>
  <variable name="x#59#5" index="280" value="1"/>
  <variable name="x#60#1" index="281" value="0"/>
  <variable name="x#60#3" index="282" value="0"/>
  <variable name="x#60#5" index="283" value="1"/>
  <variable name="x#61#1" index="284" value="0"/>
  <variable name="x#61#2" index="285" value="0"/>
  <variable name="x#61#3" index="286" value="0"/>
  <variable name="x#61#4" index="287" value="1"/>
  <variable name="x#61#5" index="288" value="1"/>
  <variable name="x#62#1" index="289" value="1"/>
  <variable name="x#62#2" index="290" value="0"/>
  <variable name="x#62#3" index="291" value="0"/>
  <variable name="x#62#5" index="292" value="1"/>
  <variable name="x#63#1" index="293" value="1"/>
  <variable name="x#63#2" index="294" value="0"/>
  <variable name="x#63#3" index="295" value="0"/>
  <variable name="x#63#4" index="296" value="1"/>
  <variable name="x#63#5" index="297" value="1"/>
  <variable name="x#64#1" index="298" value="1"/>
  <variable name="x#64#2" index="299" value="0"/>
  <variable name="x#64#3" index="300" value="0"/>
  <variable name="x#64#4" index="301" value="0"/>
  <variable name="x#64#5" index="302" value="1"/>
  <variable name="x#65#1" index="303" value="1"/>
  <variable name="x#65#2" index="304" value="0"/>
  <variable name="x#65#3" index="305" value="0"/>
  <variable name="x#65#4" index="306" value="1"/>
  <variable name="x#65#5" index="307" value="1"/>
  <variable name="x#66#1" index="308" value="1"/>
  <variable name="x#66#2" index="309" value="0"/>
  <variable name="x#66#3" index="310" value="0"/>
  <variable name="x#66#5" index="311" value="0"/>
  <variable name="x#67#1" index="312" value="0"/>
  <variable name="x#67#2" index="313" value="0"/>
  <variable name="x#67#4" index="314" value="1"/>
  <variable name="x#67#5" index="315" value="1"/>
  <variable name="x#68#1" index="316" value="1"/>
  <variable name="x#68#2" index="317" value="0"/>
  <variable name="x#68#4" index="318" value="1"/>
  <variable name="x#68#5" index="319" value="1"/>
  <variable name="x#69#1" index="320" value="1"/>
  <variable name="x#69#2" index="321" value="0"/>
  <variable name="x#69#3" index="322" value="0"/>
  <variable name="x#69#4" index="323" value="1"/>
  <variable name="x#70#1" index="324" value="1"/>
  <variable name="x#70#2" index="325" value="0"/>
  <variable name="x#70#3" index="326" value="0"/>
  <variable name="x#70#4" index="327" value="1"/>
  <variable name="x#70#5" index="328" value="1"/>
  <variable name="x#71#1" index="329" value="0"/>
  <variable name="x#71#2" index="330" value="0"/>
  <variable name="x#71#3" index="331" value="0"/>
  <variable name="x#71#4" index="332" value="1"/>
  <variable name="x#71#5" index="333" value="1"/>
  <variable name="x#72#1" index="334" value="1"/>
  <variable name="x#72#2" index="335" value="0"/>
  <variable name="x#72#3" index="336" value="0"/>
  <variable name="x#72#4" index="337" value="0"/>
  <variable name="x#72#5" index="338" value="1"/>
  <variable name="x#73#1" index="339" value="0"/>
  <variable name="x#73#2" index="340" value="0"/>
  <variable name="x#73#4" index="341" value="1"/>
  <variable name="x#73#5" index="342" value="1"/>
  <variable name="x#74#1" index="343" value="0"/>
  <variable name="x#74#2" index="344" value="0"/>
  <variable name="x#74#3" index="345" value="0"/>
  <variable name="x#74#4" index="346" value="0"/>
  <variable name="x#74#5" index="347" value="1"/>
  <variable name="x#75#1" index="348" value="1"/>
  <variable name="x#75#2" index="349" value="0"/>
  <variable name="x#75#3" index="350" value="0"/>
  <variable name="x#75#4" index="351" value="1"/>
  <variable name="x#75#5" index="352" value="1"/>
  <variable name="x#76#1" index="353" value="1"/>
  <variable name="x#76#2" index="354" value="0"/>
  <variable name="x#76#3" index="355" value="0"/>
  <variable name="x#76#4" index="356" value="1"/>
  <variable name="x#76#5" index="357" value="0"/>
  <variable name="x#77#1" index="358" value="1"/>
  <variable name="x#77#2" index="359" value="0"/>
  <variable name="x#77#3" index="360" value="0"/>
  <variable name="x#77#4" index="361" value="1"/>
  <variable name="x#77#5" index="362" value="0"/>
  <variable name="x#78#1" index="363" value="1"/>
  <variable name="x#78#2" index="364" value="0"/>
  <variable name="x#78#3" index="365" value="0"/>
  <variable name="x#78#4" index="366" value="1"/>
  <variable name="x#78#5" index="367" value="0"/>
  <variable name="x#79#1" index="368" value="0"/>
  <variable name="x#79#2" index="369" value="0"/>
  <variable name="x#79#3" index="370" value="0"/>
  <variable name="x#79#4" index="371" value="1"/>
  <variable name="x#79#5" index="372" value="0"/>
  <variable name="x#80#1" index="373" value="1"/>
  <variable name="x#80#2" index="374" value="0"/>
  <variable name="x#80#3" index="375" value="0"/>
  <variable name="x#80#4" index="376" value="0"/>
  <variable name="x#80#5" index="377" value="1"/>
  <variable name="x#81#1" index="378" value="0"/>
  <variable name="x#81#2" index="379" value="0"/>
  <variable name="x#81#3" index="380" value="0"/>
  <variable name="x#81#4" index="381" value="1"/>
  <variable name="x#81#5" index="382" value="1"/>
  <variable name="x#82#1" index="383" value="1"/>
  <variable name="x#82#2" index="384" value="0"/>
  <variable name="x#82#3" index="385" value="0"/>
  <variable name="x#82#4" index="386" value="1"/>
  <variable name="x#82#5" index="387" value="1"/>
  <variable name="x#83#1" index="388" value="1"/>
  <variable name="x#83#2" index="389" value="0"/>
  <variable name="x#83#3" index="390" value="0"/>
  <variable name="x#83#4" index="391" value="1"/>
  <variable name="x#84#1" index="392" value="1"/>
  <variable name="x#84#2" index="393" value="0"/>
  <variable name="x#84#3" index="394" value="0"/>
  <variable name="x#84#4" index="395" value="1"/>
  <variable name="x#84#5" index="396" value="1"/>
  <variable name="x#85#1" index="397" value="1"/>
  <variable name="x#85#2" index="398" value="0"/>
  <variable name="x#85#3" index="399" value="0"/>
  <variable name="x#85#4" index="400" value="1"/>
  <variable name="x#85#5" index="401" value="1"/>
  <variable name="x#86#1" index="402" value="1"/>
  <variable name="x#86#2" index="403" value="0"/>
  <variable name="x#86#4" index="404" value="1"/>
  <variable name="x#86#5" index="405" value="0"/>
  <variable name="x#87#1" index="406" value="1"/>
  <variable name="x#87#2" index="407" value="0"/>
  <variable name="x#87#3" index="408" value="0"/>
  <variable name="x#87#4" index="409" value="1"/>
  <variable name="x#87#5" index="410" value="1"/>
  <variable name="x#88#1" index="411" value="1"/>
  <variable name="x#88#2" index="412" value="0"/>
  <variable name="x#88#3" index="413" value="0"/>
  <variable name="x#88#4" index="414" value="1"/>
  <variable name="x#88#5" index="415" value="1"/>
  <variable name="x#89#1" index="416" value="1"/>
  <variable name="x#89#2" index="417" value="0"/>
  <variable name="x#89#3" index="418" value="0"/>
  <variable name="x#89#4" index="419" value="1"/>
  <variable name="x#90#1" index="420" value="1"/>
  <variable name="x#90#2" index="421" value="0"/>
  <variable name="x#90#3" index="422" value="0"/>
  <variable name="x#90#4" index="423" value="1"/>
  <variable name="x#90#5" index="424" value="1"/>
  <variable name="x#91#1" index="425" value="1"/>
  <variable name="x#91#2" index="426" value="0"/>
  <variable name="x#91#3" index="427" value="0"/>
  <variable name="x#91#4" index="428" value="1"/>
  <variable name="x#91#5" index="429" value="1"/>
  <variable name="x#92#1" index="430" value="1"/>
  <variable name="x#92#2" index="431" value="0"/>
  <variable name="x#92#3" index="432" value="0"/>
  <variable name="x#92#4" index="433" value="1"/>
  <variable name="x#92#5" index="434" value="0"/>
  <variable name="x#93#1" index="435" value="1"/>
  <variable name="x#93#3" index="436" value="0"/>
  <variable name="x#93#4" index="437" value="1"/>
  <variable name="x#93#5" index="438" value="0"/>
  <variable name="x#94#1" index="439" value="1"/>
  <variable name="x#94#2" index="440" value="0"/>
  <variable name="x#94#3" index="441" value="0"/>
  <variable name="x#94#4" index="442" value="1"/>
  <variable name="x#94#5" index="443" value="1"/>
  <variable name="x#95#1" index="444" value="1"/>
  <variable name="x#95#2" index="445" value="0"/>
  <variable name="x#95#3" index="446" value="0"/>
  <variable name="x#95#4" index="447" value="0"/>
  <variable name="x#95#5" index="448" value="1"/>
  <variable name="x#96#2" index="449" value="0"/>
  <variable name="x#96#3" index="450" value="0"/>
  <variable name="x#96#4" index="451" value="1"/>
  <variable name="x#96#5" index="452" value="1"/>
  <variable name="x#97#1" index="453" value="1"/>
  <variable name="x#97#2" index="454" value="0"/>
  <variable name="x#97#3" index="455" value="0"/>
  <variable name="x#97#4" index="456" value="1"/>
  <variable name="x#97#5" index="457" value="0"/>
  <variable name="x#98#1" index="458" value="1"/>
  <variable name="x#98#2" index="459" value="0"/>
  <variable name="x#98#3" index="460" value="0"/>
  <variable name="x#98#4" index="461" value="1"/>
  <variable name="x#99#1" index="462" value="1"/>
  <variable name="x#99#2" index="463" value="0"/>
  <variable name="x#99#3" index="464" value="0"/>
  <variable name="x#99#4" index="465" value="1"/>
  <variable name="x#100#1" index="466" value="1"/>
  <variable name="x#100#2" index="467" value="0"/>
  <variable name="x#100#3" index="468" value="0"/>
  <variable name="x#100#4" index="469" value="1"/>
  <variable name="x#100#5" index="470" value="0"/>
  <variable name="y#1" index="471" value="1"/>
  <variable name="y#2" index="472" value="0"/>
  <variable name="y#3" index="473" value="0"/>
  <variable name="y#4" index="474" value="1"/>
  <variable name="y#5" index="475" value="1"/>
  <variable name="x#99#5" index="476" value="0"/>
  <variable name="x#98#5" index="477" value="0"/>
  <variable name="x#96#1" index="478" value="0"/>
  <variable name="x#93#2" index="479" value="0"/>
  <variable name="x#89#5" index="480" value="0"/>
  <variable name="x#86#3" index="481" value="0"/>
  <variable name="x#83#5" index="482" value="0"/>
  <variable name="x#73#3" index="483" value="0"/>
  <variable name="x#69#5" index="484" value="0"/>
  <variable name="x#68#3" index="485" value="0"/>
  <variable name="x#67#3" index="486" value="0"/>
  <variable name="x#66#4" index="487" value="1"/>
  <variable name="x#62#4" index="488" value="1"/>
  <variable name="x#60#4" index="489" value="1"/>
  <variable name="x#60#2" index="490" value="0"/>
  <variable name="x#59#2" index="491" value="0"/>
  <variable name="x#52#2" index="492" value="0"/>
  <variable name="x#47#5" index="493" value="0"/>
  <variable name="x#44#4" index="494" value="1"/>
  <variable name="x#35#5" index="495" value="0"/>
  <variable name="x#35#2" index="496" value="0"/>
  <variable name="x#34#2" index="497" value="0"/>
  <variable name="x#24#1" index="498" value="0"/>
  <variable name="x#23#1" index="499" value="0"/>
  <variable name="x#20#5" index="500" value="0"/>
  <variable name="x#13#2" index="501" value="0"/>
  <variable name="x#11#5" index="502" value="0"/>
  <variable name="x#10#2" index="503" value="0"/>
  <variable name="x#8#2" index="504" value="0"/>
 </variables>
</CPLEXSolution>
